c v 4
c e 0 1 6
c e 0 2 1
c e 0 3 4
c e 1 2 2
c e 1 3 7
c e 2 3 10
p cnf 10 14
1 2 3 0
-1 -2 3 0
1 4 5 0
-1 -4 5 0
6 7 8 0
-6 -7 8 0
6 1 9 0
-6 -1 9 0
6 -4 -3 -8 0
-2 7 -5 0
-7 10 -9 0
-6 1 0
-1 4 0
-1 2 0
